c FILE /home/rafael/Documents/HappySet/MIHS/inputs/happygen/output/graph_d_regular_k7_p0.3_v50_20241127_082647.txt
c SOURCE This is a d-regular graph formed for the happy graph colouring problem.
c DESCRIPTION It was generated using the problem generator of Rhyd Lewis
c
c GRAPH STATS
c Seed                             = 981879003
c Number of Nodes                  = 50
c Number of colours k              = 7
c Number of pre-assignments        = 15
c Degree of all vertices           = 6
c Density                          = 0.122449
c 
c The degrees of nodes 1 to 50, respectively, are as follows 
c [6, 6, 6, 6, 6, 6, 6, 6, 6, 6, 6, 6, 6, 6, 6, 6, 6, 6, 6, 6, 6, 6, 6, 6, 6, 6, 
c  6, 6, 6, 6, 6, 6, 6, 6, 6, 6, 6, 6, 6, 6, 6, 6, 6, 6, 6, 6, 6, 6, 6, 6] 
c  
p edge 50 150 7
e 1 4
e 1 13
e 1 24
e 1 33
e 1 41
e 1 43
e 2 4
e 2 5
e 2 18
e 2 27
e 2 41
e 2 45
e 3 7
e 3 16
e 3 21
e 3 24
e 3 30
e 3 32
e 4 13
e 4 31
e 4 44
e 4 49
e 5 13
e 5 16
e 5 22
e 5 26
e 5 31
e 6 13
e 6 34
e 6 35
e 6 38
e 6 43
e 6 49
e 7 15
e 7 28
e 7 37
e 7 40
e 7 49
e 8 11
e 8 15
e 8 25
e 8 36
e 8 44
e 8 48
e 9 11
e 9 14
e 9 20
e 9 32
e 9 35
e 9 42
e 10 17
e 10 25
e 10 28
e 10 30
e 10 31
e 10 44
e 11 29
e 11 33
e 11 47
e 11 48
e 12 15
e 12 18
e 12 19
e 12 20
e 12 33
e 12 37
e 13 29
e 13 47
e 14 19
e 14 24
e 14 29
e 14 41
e 14 44
e 15 17
e 15 23
e 15 37
e 16 32
e 16 33
e 16 36
e 16 46
e 17 26
e 17 35
e 17 48
e 17 50
e 18 22
e 18 23
e 18 28
e 18 49
e 19 29
e 19 34
e 19 35
e 19 41
e 20 23
e 20 34
e 20 35
e 20 47
e 21 27
e 21 28
e 21 32
e 21 38
e 21 46
e 22 37
e 22 45
e 22 46
e 22 50
e 23 30
e 23 40
e 23 47
e 24 31
e 24 33
e 24 37
e 25 34
e 25 39
e 25 41
e 25 50
e 26 27
e 26 40
e 26 41
e 26 48
e 27 36
e 27 44
e 27 46
e 28 38
e 28 47
e 29 30
e 29 40
e 30 42
e 30 49
e 31 36
e 31 39
e 32 42
e 32 43
e 33 46
e 34 36
e 34 43
e 35 40
e 36 50
e 37 38
e 38 43
e 38 48
e 39 43
e 39 45
e 39 49
e 39 50
e 40 42
e 42 44
e 42 45
e 45 46
e 45 50
e 47 48
n 10 2
n 13 4
n 16 2
n 21 7
n 22 1
n 23 6
n 33 2
n 35 6
n 38 7
n 40 6
n 41 3
n 44 2
n 48 7
n 49 5
n 50 1
